55201
9, 12, 18, 4, 30, 47, 54, 26, 55, 28, 6, 3, 49, 44, 8, 38, 24, 50, 20, 7, 40, 43, 13, 51, 37, 5, 35, 41, 32, 19, 48, 17, 29, 21, 23, 53, 34, 10, 22, 16, 39, 46, 36, 15, 52, 25, 31, 27, 1, 33, 42, 11, 45, 2, 14
